tsp_instances/TSP50/instance31.tsp
NODE_COORD_SECTION
0 158 54
1 46 125
2 78 82
3 25 31
4 16 136
5 17 1
6 73 24
7 25 21
8 197 130
9 17 34
10 64 142
11 90 123
12 90 35
13 102 42
14 56 16
15 136 25
16 166 17
17 120 30
18 157 47
19 48 5
20 89 28
21 32 61
22 111 198
23 96 143
24 125 20
25 143 108
26 70 98
27 162 30
28 122 175
29 89 168
30 18 117
31 164 82
32 100 174
33 47 72
34 34 133
35 95 125
36 29 109
37 3 65
38 184 173
39 173 98
40 12 94
41 49 155
42 145 90
43 91 28
44 155 91
45 24 140
46 157 96
47 2 49
48 156 139
49 48 55
