tsp_instances/TSP50/instance31.opt.tour
TOUR_SECTION
1
19
28
17
16
25
18
14
13
44
21
7
15
20
6
8
4
10
48
38
22
50
34
3
27
37
41
31
5
46
35
2
42
11
12
36
24
30
33
23
29
39
9
49
26
43
45
47
40
32
-1